c " random instance " 
p edges 200 4121
e 1 5
e 1 6
e 1 17
e 1 18
e 1 21
e 1 24
e 1 31
e 1 35
e 1 38
e 1 41
e 1 43
e 1 47
e 1 50
e 1 61
e 1 75
e 1 78
e 1 79
e 1 84
e 1 99
e 1 101
e 1 103
e 1 110
e 1 117
e 1 121
e 1 124
e 1 136
e 1 143
e 1 152
e 1 155
e 1 161
e 1 166
e 1 176
e 1 177
e 1 193
e 1 197
e 1 199
e 2 3
e 2 10
e 2 16
e 2 19
e 2 21
e 2 38
e 2 39
e 2 42
e 2 48
e 2 49
e 2 50
e 2 59
e 2 61
e 2 72
e 2 74
e 2 77
e 2 79
e 2 87
e 2 98
e 2 100
e 2 110
e 2 115
e 2 116
e 2 118
e 2 121
e 2 124
e 2 146
e 2 148
e 2 166
e 2 168
e 2 170
e 2 182
e 2 198
e 2 199
e 3 4
e 3 15
e 3 17
e 3 20
e 3 21
e 3 23
e 3 48
e 3 49
e 3 50
e 3 51
e 3 61
e 3 68
e 3 71
e 3 76
e 3 91
e 3 99
e 3 103
e 3 105
e 3 111
e 3 115
e 3 119
e 3 124
e 3 126
e 3 133
e 3 134
e 3 146
e 3 153
e 3 163
e 3 164
e 3 165
e 3 180
e 3 189
e 4 13
e 4 18
e 4 21
e 4 27
e 4 28
e 4 38
e 4 42
e 4 45
e 4 53
e 4 64
e 4 68
e 4 70
e 4 79
e 4 82
e 4 83
e 4 85
e 4 86
e 4 87
e 4 88
e 4 91
e 4 96
e 4 101
e 4 106
e 4 113
e 4 116
e 4 119
e 4 124
e 4 136
e 4 140
e 4 141
e 4 150
e 4 151
e 4 154
e 4 158
e 4 196
e 4 198
e 4 199
e 5 13
e 5 14
e 5 26
e 5 28
e 5 31
e 5 44
e 5 46
e 5 47
e 5 64
e 5 65
e 5 71
e 5 72
e 5 75
e 5 78
e 5 83
e 5 87
e 5 99
e 5 105
e 5 110
e 5 117
e 5 120
e 5 132
e 5 133
e 5 141
e 5 152
e 5 156
e 5 159
e 5 165
e 5 166
e 5 167
e 5 173
e 5 177
e 5 184
e 5 194
e 5 195
e 5 196
e 5 198
e 6 14
e 6 19
e 6 21
e 6 22
e 6 26
e 6 44
e 6 45
e 6 67
e 6 74
e 6 113
e 6 114
e 6 115
e 6 119
e 6 121
e 6 123
e 6 126
e 6 145
e 6 154
e 6 155
e 6 156
e 6 161
e 6 167
e 6 171
e 6 175
e 6 181
e 6 183
e 6 185
e 6 192
e 6 194
e 6 196
e 6 198
e 6 199
e 7 9
e 7 10
e 7 12
e 7 14
e 7 19
e 7 20
e 7 23
e 7 24
e 7 30
e 7 34
e 7 39
e 7 43
e 7 46
e 7 57
e 7 61
e 7 62
e 7 74
e 7 79
e 7 82
e 7 98
e 7 100
e 7 101
e 7 106
e 7 114
e 7 120
e 7 123
e 7 125
e 7 134
e 7 138
e 7 140
e 7 142
e 7 148
e 7 150
e 7 153
e 7 157
e 7 158
e 7 160
e 7 161
e 7 162
e 7 168
e 7 172
e 7 175
e 7 195
e 7 200
e 8 9
e 8 11
e 8 12
e 8 15
e 8 17
e 8 20
e 8 21
e 8 22
e 8 26
e 8 41
e 8 44
e 8 47
e 8 48
e 8 51
e 8 52
e 8 67
e 8 68
e 8 73
e 8 74
e 8 77
e 8 82
e 8 83
e 8 89
e 8 93
e 8 100
e 8 101
e 8 105
e 8 109
e 8 110
e 8 111
e 8 115
e 8 124
e 8 129
e 8 138
e 8 147
e 8 153
e 8 154
e 8 161
e 8 165
e 8 168
e 8 180
e 8 183
e 8 186
e 8 187
e 8 188
e 8 191
e 8 192
e 8 194
e 8 199
e 9 10
e 9 21
e 9 35
e 9 40
e 9 42
e 9 44
e 9 45
e 9 52
e 9 59
e 9 62
e 9 66
e 9 71
e 9 73
e 9 75
e 9 81
e 9 85
e 9 90
e 9 100
e 9 102
e 9 104
e 9 112
e 9 113
e 9 115
e 9 120
e 9 123
e 9 124
e 9 129
e 9 133
e 9 134
e 9 135
e 9 139
e 9 140
e 9 149
e 9 151
e 9 153
e 9 155
e 9 156
e 9 158
e 9 165
e 9 168
e 9 178
e 9 184
e 9 187
e 9 188
e 9 195
e 9 196
e 9 198
e 10 14
e 10 20
e 10 22
e 10 40
e 10 42
e 10 43
e 10 48
e 10 51
e 10 52
e 10 55
e 10 69
e 10 71
e 10 78
e 10 92
e 10 93
e 10 99
e 10 110
e 10 120
e 10 133
e 10 134
e 10 135
e 10 145
e 10 147
e 10 150
e 10 159
e 10 160
e 10 161
e 10 174
e 10 176
e 10 179
e 10 180
e 10 184
e 11 19
e 11 34
e 11 35
e 11 37
e 11 38
e 11 41
e 11 42
e 11 44
e 11 46
e 11 52
e 11 53
e 11 58
e 11 68
e 11 70
e 11 73
e 11 74
e 11 85
e 11 94
e 11 98
e 11 107
e 11 112
e 11 125
e 11 127
e 11 131
e 11 136
e 11 138
e 11 143
e 11 146
e 11 149
e 11 157
e 11 167
e 11 168
e 11 170
e 11 185
e 11 189
e 11 190
e 11 196
e 12 15
e 12 17
e 12 19
e 12 21
e 12 25
e 12 27
e 12 31
e 12 39
e 12 41
e 12 47
e 12 50
e 12 53
e 12 65
e 12 67
e 12 82
e 12 90
e 12 91
e 12 96
e 12 104
e 12 115
e 12 116
e 12 119
e 12 120
e 12 123
e 12 132
e 12 134
e 12 138
e 12 139
e 12 143
e 12 145
e 12 159
e 12 160
e 12 162
e 12 171
e 12 188
e 12 191
e 12 195
e 12 198
e 13 18
e 13 22
e 13 23
e 13 26
e 13 28
e 13 32
e 13 51
e 13 53
e 13 59
e 13 61
e 13 65
e 13 66
e 13 73
e 13 74
e 13 77
e 13 81
e 13 89
e 13 91
e 13 92
e 13 95
e 13 96
e 13 100
e 13 104
e 13 107
e 13 109
e 13 110
e 13 114
e 13 116
e 13 118
e 13 126
e 13 127
e 13 128
e 13 130
e 13 158
e 13 159
e 13 161
e 13 168
e 13 171
e 13 172
e 13 173
e 13 200
e 14 16
e 14 17
e 14 18
e 14 30
e 14 33
e 14 52
e 14 58
e 14 59
e 14 60
e 14 78
e 14 79
e 14 81
e 14 83
e 14 90
e 14 101
e 14 110
e 14 117
e 14 119
e 14 128
e 14 132
e 14 134
e 14 138
e 14 145
e 14 151
e 14 159
e 14 160
e 14 166
e 14 170
e 14 173
e 14 175
e 14 176
e 14 177
e 14 179
e 14 180
e 14 181
e 14 185
e 14 190
e 14 191
e 14 200
e 15 19
e 15 28
e 15 33
e 15 39
e 15 48
e 15 49
e 15 50
e 15 51
e 15 54
e 15 62
e 15 66
e 15 68
e 15 74
e 15 77
e 15 80
e 15 84
e 15 87
e 15 101
e 15 102
e 15 109
e 15 118
e 15 126
e 15 127
e 15 134
e 15 140
e 15 143
e 15 144
e 15 145
e 15 146
e 15 151
e 15 153
e 15 154
e 15 168
e 15 170
e 15 172
e 15 175
e 15 177
e 15 180
e 15 192
e 16 17
e 16 20
e 16 21
e 16 22
e 16 24
e 16 28
e 16 36
e 16 38
e 16 40
e 16 47
e 16 49
e 16 53
e 16 54
e 16 60
e 16 72
e 16 79
e 16 80
e 16 82
e 16 83
e 16 89
e 16 96
e 16 102
e 16 106
e 16 111
e 16 112
e 16 116
e 16 118
e 16 126
e 16 130
e 16 136
e 16 138
e 16 140
e 16 143
e 16 146
e 16 150
e 16 152
e 16 157
e 16 158
e 16 159
e 16 161
e 16 165
e 16 168
e 16 171
e 16 188
e 16 192
e 16 194
e 16 199
e 16 200
e 17 29
e 17 31
e 17 34
e 17 36
e 17 42
e 17 43
e 17 51
e 17 65
e 17 66
e 17 72
e 17 73
e 17 75
e 17 76
e 17 77
e 17 79
e 17 80
e 17 84
e 17 88
e 17 95
e 17 100
e 17 101
e 17 104
e 17 105
e 17 115
e 17 116
e 17 117
e 17 142
e 17 152
e 17 153
e 17 155
e 17 157
e 17 163
e 17 168
e 17 170
e 17 175
e 17 180
e 17 183
e 17 185
e 17 190
e 17 195
e 18 20
e 18 23
e 18 33
e 18 34
e 18 59
e 18 62
e 18 67
e 18 77
e 18 81
e 18 82
e 18 85
e 18 88
e 18 94
e 18 97
e 18 110
e 18 111
e 18 112
e 18 122
e 18 126
e 18 127
e 18 130
e 18 134
e 18 135
e 18 143
e 18 144
e 18 145
e 18 150
e 18 168
e 18 173
e 18 177
e 18 183
e 18 188
e 18 190
e 18 191
e 18 199
e 19 20
e 19 27
e 19 28
e 19 29
e 19 30
e 19 43
e 19 48
e 19 55
e 19 56
e 19 74
e 19 75
e 19 78
e 19 79
e 19 80
e 19 83
e 19 84
e 19 86
e 19 89
e 19 91
e 19 96
e 19 97
e 19 103
e 19 104
e 19 105
e 19 107
e 19 110
e 19 111
e 19 112
e 19 119
e 19 120
e 19 121
e 19 124
e 19 129
e 19 132
e 19 135
e 19 136
e 19 144
e 19 150
e 19 153
e 19 157
e 19 161
e 19 162
e 19 166
e 19 173
e 19 175
e 19 176
e 19 178
e 19 180
e 19 181
e 19 189
e 19 192
e 19 195
e 20 26
e 20 27
e 20 29
e 20 43
e 20 44
e 20 48
e 20 49
e 20 65
e 20 66
e 20 67
e 20 72
e 20 84
e 20 87
e 20 88
e 20 96
e 20 97
e 20 98
e 20 100
e 20 108
e 20 110
e 20 111
e 20 113
e 20 115
e 20 122
e 20 125
e 20 128
e 20 132
e 20 135
e 20 141
e 20 147
e 20 157
e 20 159
e 20 162
e 20 171
e 20 172
e 20 180
e 20 187
e 20 189
e 20 191
e 20 193
e 20 200
e 21 32
e 21 33
e 21 48
e 21 54
e 21 61
e 21 65
e 21 66
e 21 68
e 21 71
e 21 77
e 21 78
e 21 79
e 21 80
e 21 91
e 21 93
e 21 94
e 21 95
e 21 101
e 21 102
e 21 103
e 21 111
e 21 118
e 21 125
e 21 136
e 21 139
e 21 155
e 21 162
e 21 166
e 21 173
e 21 175
e 21 185
e 21 192
e 22 24
e 22 27
e 22 28
e 22 33
e 22 35
e 22 47
e 22 49
e 22 53
e 22 54
e 22 55
e 22 58
e 22 60
e 22 62
e 22 63
e 22 77
e 22 91
e 22 94
e 22 99
e 22 104
e 22 110
e 22 120
e 22 123
e 22 126
e 22 133
e 22 135
e 22 138
e 22 139
e 22 149
e 22 155
e 22 156
e 22 161
e 22 162
e 22 164
e 22 169
e 22 172
e 22 177
e 22 183
e 22 187
e 23 25
e 23 38
e 23 42
e 23 65
e 23 66
e 23 80
e 23 81
e 23 92
e 23 93
e 23 97
e 23 103
e 23 107
e 23 110
e 23 111
e 23 121
e 23 123
e 23 127
e 23 129
e 23 133
e 23 137
e 23 141
e 23 143
e 23 145
e 23 147
e 23 149
e 23 150
e 23 155
e 23 157
e 23 160
e 23 161
e 23 163
e 23 165
e 23 176
e 23 178
e 23 181
e 23 183
e 23 184
e 23 187
e 23 198
e 24 27
e 24 34
e 24 36
e 24 38
e 24 53
e 24 56
e 24 58
e 24 62
e 24 66
e 24 68
e 24 72
e 24 77
e 24 80
e 24 82
e 24 86
e 24 89
e 24 96
e 24 102
e 24 106
e 24 114
e 24 117
e 24 123
e 24 126
e 24 127
e 24 128
e 24 130
e 24 139
e 24 153
e 24 160
e 24 162
e 24 173
e 24 180
e 24 194
e 24 200
e 25 26
e 25 33
e 25 37
e 25 39
e 25 40
e 25 42
e 25 43
e 25 46
e 25 54
e 25 58
e 25 67
e 25 68
e 25 79
e 25 84
e 25 87
e 25 89
e 25 96
e 25 100
e 25 102
e 25 111
e 25 115
e 25 116
e 25 118
e 25 125
e 25 128
e 25 135
e 25 142
e 25 150
e 25 161
e 25 169
e 25 171
e 25 175
e 25 177
e 25 183
e 25 189
e 25 196
e 26 27
e 26 28
e 26 46
e 26 47
e 26 52
e 26 70
e 26 74
e 26 77
e 26 87
e 26 93
e 26 103
e 26 104
e 26 106
e 26 109
e 26 113
e 26 119
e 26 121
e 26 126
e 26 127
e 26 137
e 26 151
e 26 152
e 26 164
e 26 165
e 26 170
e 26 171
e 26 179
e 26 192
e 26 195
e 26 198
e 27 34
e 27 41
e 27 43
e 27 45
e 27 61
e 27 62
e 27 74
e 27 77
e 27 85
e 27 87
e 27 92
e 27 93
e 27 103
e 27 104
e 27 109
e 27 116
e 27 119
e 27 123
e 27 131
e 27 135
e 27 138
e 27 141
e 27 146
e 27 149
e 27 156
e 27 161
e 27 162
e 27 164
e 27 168
e 27 175
e 27 178
e 27 183
e 27 187
e 27 188
e 27 191
e 27 193
e 27 198
e 27 199
e 28 33
e 28 56
e 28 57
e 28 59
e 28 62
e 28 64
e 28 65
e 28 67
e 28 85
e 28 87
e 28 93
e 28 103
e 28 111
e 28 114
e 28 121
e 28 122
e 28 129
e 28 140
e 28 141
e 28 142
e 28 146
e 28 147
e 28 152
e 28 154
e 28 160
e 28 165
e 28 167
e 28 170
e 28 173
e 28 175
e 28 176
e 28 181
e 28 189
e 28 193
e 28 197
e 28 200
e 29 34
e 29 35
e 29 38
e 29 41
e 29 44
e 29 45
e 29 50
e 29 53
e 29 55
e 29 56
e 29 60
e 29 63
e 29 67
e 29 69
e 29 76
e 29 82
e 29 84
e 29 86
e 29 87
e 29 100
e 29 106
e 29 112
e 29 114
e 29 120
e 29 123
e 29 124
e 29 129
e 29 134
e 29 136
e 29 140
e 29 142
e 29 146
e 29 152
e 29 155
e 29 159
e 29 167
e 29 168
e 29 174
e 29 178
e 29 179
e 29 180
e 29 183
e 29 185
e 29 187
e 29 188
e 29 197
e 29 198
e 30 41
e 30 42
e 30 44
e 30 45
e 30 49
e 30 59
e 30 61
e 30 65
e 30 68
e 30 69
e 30 75
e 30 77
e 30 80
e 30 84
e 30 85
e 30 86
e 30 87
e 30 88
e 30 89
e 30 90
e 30 94
e 30 95
e 30 99
e 30 100
e 30 101
e 30 109
e 30 113
e 30 116
e 30 124
e 30 145
e 30 147
e 30 162
e 30 164
e 30 174
e 30 175
e 30 176
e 30 177
e 30 180
e 30 185
e 30 198
e 30 199
e 30 200
e 31 32
e 31 34
e 31 46
e 31 47
e 31 48
e 31 54
e 31 67
e 31 80
e 31 90
e 31 105
e 31 108
e 31 111
e 31 112
e 31 123
e 31 134
e 31 139
e 31 140
e 31 142
e 31 166
e 31 176
e 31 190
e 31 195
e 32 35
e 32 38
e 32 41
e 32 45
e 32 51
e 32 52
e 32 55
e 32 62
e 32 75
e 32 76
e 32 77
e 32 82
e 32 85
e 32 87
e 32 89
e 32 90
e 32 95
e 32 96
e 32 98
e 32 100
e 32 105
e 32 108
e 32 113
e 32 118
e 32 122
e 32 124
e 32 132
e 32 134
e 32 140
e 32 147
e 32 160
e 32 161
e 32 162
e 32 165
e 32 171
e 32 172
e 32 177
e 32 178
e 32 182
e 32 185
e 32 192
e 33 40
e 33 42
e 33 43
e 33 46
e 33 49
e 33 50
e 33 52
e 33 54
e 33 56
e 33 58
e 33 59
e 33 65
e 33 68
e 33 72
e 33 73
e 33 97
e 33 101
e 33 106
e 33 124
e 33 125
e 33 139
e 33 141
e 33 146
e 33 147
e 33 151
e 33 156
e 33 163
e 33 164
e 33 165
e 33 176
e 33 178
e 33 184
e 33 185
e 33 189
e 33 190
e 33 192
e 33 194
e 33 198
e 34 41
e 34 44
e 34 45
e 34 47
e 34 48
e 34 49
e 34 55
e 34 59
e 34 62
e 34 64
e 34 78
e 34 80
e 34 90
e 34 92
e 34 99
e 34 101
e 34 108
e 34 109
e 34 115
e 34 124
e 34 125
e 34 126
e 34 130
e 34 135
e 34 141
e 34 147
e 34 153
e 34 154
e 34 159
e 34 162
e 34 163
e 34 167
e 34 172
e 34 178
e 34 188
e 34 190
e 34 196
e 35 38
e 35 39
e 35 43
e 35 48
e 35 55
e 35 62
e 35 70
e 35 74
e 35 78
e 35 82
e 35 93
e 35 103
e 35 109
e 35 115
e 35 118
e 35 138
e 35 139
e 35 143
e 35 146
e 35 148
e 35 157
e 35 163
e 35 169
e 35 178
e 35 193
e 35 196
e 36 39
e 36 62
e 36 63
e 36 66
e 36 68
e 36 69
e 36 73
e 36 91
e 36 93
e 36 94
e 36 98
e 36 99
e 36 102
e 36 104
e 36 129
e 36 133
e 36 135
e 36 149
e 36 155
e 36 161
e 36 180
e 36 183
e 36 189
e 36 200
e 37 44
e 37 51
e 37 53
e 37 59
e 37 67
e 37 69
e 37 71
e 37 79
e 37 80
e 37 81
e 37 83
e 37 84
e 37 87
e 37 90
e 37 91
e 37 101
e 37 103
e 37 111
e 37 115
e 37 117
e 37 118
e 37 119
e 37 120
e 37 123
e 37 127
e 37 128
e 37 130
e 37 141
e 37 144
e 37 150
e 37 155
e 37 159
e 37 160
e 37 161
e 37 164
e 37 168
e 37 173
e 37 177
e 37 179
e 37 180
e 37 181
e 37 190
e 37 191
e 37 192
e 37 196
e 38 40
e 38 43
e 38 44
e 38 52
e 38 57
e 38 58
e 38 67
e 38 68
e 38 77
e 38 79
e 38 80
e 38 87
e 38 88
e 38 90
e 38 92
e 38 98
e 38 100
e 38 113
e 38 117
e 38 120
e 38 125
e 38 127
e 38 132
e 38 137
e 38 139
e 38 144
e 38 154
e 38 158
e 38 162
e 38 163
e 38 164
e 38 165
e 38 173
e 38 192
e 39 40
e 39 46
e 39 52
e 39 57
e 39 59
e 39 61
e 39 68
e 39 75
e 39 78
e 39 79
e 39 82
e 39 111
e 39 112
e 39 127
e 39 132
e 39 147
e 39 152
e 39 171
e 39 174
e 39 175
e 39 181
e 39 186
e 39 191
e 39 197
e 40 45
e 40 57
e 40 61
e 40 64
e 40 73
e 40 75
e 40 87
e 40 88
e 40 99
e 40 103
e 40 104
e 40 107
e 40 117
e 40 122
e 40 123
e 40 126
e 40 128
e 40 131
e 40 136
e 40 149
e 40 160
e 40 165
e 40 172
e 40 173
e 40 175
e 40 189
e 40 195
e 40 196
e 40 198
e 41 46
e 41 56
e 41 68
e 41 69
e 41 74
e 41 75
e 41 79
e 41 80
e 41 84
e 41 87
e 41 88
e 41 90
e 41 94
e 41 101
e 41 103
e 41 120
e 41 127
e 41 137
e 41 143
e 41 145
e 41 146
e 41 147
e 41 150
e 41 151
e 41 162
e 41 167
e 41 168
e 41 179
e 41 184
e 41 192
e 41 199
e 42 46
e 42 49
e 42 56
e 42 73
e 42 75
e 42 78
e 42 80
e 42 95
e 42 97
e 42 105
e 42 111
e 42 113
e 42 123
e 42 126
e 42 137
e 42 143
e 42 148
e 42 155
e 42 158
e 42 159
e 42 162
e 42 164
e 42 165
e 42 171
e 42 178
e 42 183
e 42 185
e 43 45
e 43 51
e 43 54
e 43 55
e 43 57
e 43 67
e 43 68
e 43 70
e 43 80
e 43 85
e 43 89
e 43 91
e 43 98
e 43 101
e 43 102
e 43 105
e 43 106
e 43 110
e 43 113
e 43 117
e 43 122
e 43 132
e 43 139
e 43 141
e 43 148
e 43 151
e 43 152
e 43 155
e 43 162
e 43 167
e 43 185
e 43 188
e 43 192
e 43 197
e 43 200
e 44 48
e 44 52
e 44 70
e 44 74
e 44 82
e 44 88
e 44 102
e 44 107
e 44 108
e 44 112
e 44 115
e 44 117
e 44 131
e 44 132
e 44 137
e 44 139
e 44 140
e 44 144
e 44 150
e 44 152
e 44 156
e 44 157
e 44 158
e 44 172
e 44 177
e 44 186
e 44 189
e 44 190
e 44 197
e 44 199
e 44 200
e 45 51
e 45 53
e 45 55
e 45 59
e 45 64
e 45 66
e 45 69
e 45 70
e 45 71
e 45 76
e 45 80
e 45 84
e 45 90
e 45 94
e 45 98
e 45 99
e 45 104
e 45 113
e 45 121
e 45 128
e 45 132
e 45 142
e 45 145
e 45 150
e 45 152
e 45 153
e 45 156
e 45 160
e 45 165
e 45 176
e 45 180
e 45 182
e 45 189
e 45 195
e 45 196
e 46 53
e 46 55
e 46 58
e 46 68
e 46 75
e 46 76
e 46 84
e 46 85
e 46 90
e 46 93
e 46 94
e 46 97
e 46 98
e 46 104
e 46 105
e 46 106
e 46 111
e 46 131
e 46 134
e 46 137
e 46 142
e 46 146
e 46 157
e 46 170
e 46 172
e 46 176
e 46 178
e 46 180
e 46 183
e 46 199
e 47 48
e 47 49
e 47 56
e 47 69
e 47 78
e 47 79
e 47 86
e 47 95
e 47 103
e 47 115
e 47 122
e 47 126
e 47 127
e 47 128
e 47 130
e 47 132
e 47 137
e 47 147
e 47 148
e 47 154
e 47 158
e 47 163
e 47 165
e 47 166
e 47 167
e 47 171
e 47 176
e 47 181
e 47 184
e 47 188
e 47 189
e 47 193
e 48 51
e 48 85
e 48 92
e 48 94
e 48 98
e 48 105
e 48 108
e 48 112
e 48 113
e 48 115
e 48 117
e 48 118
e 48 121
e 48 124
e 48 130
e 48 133
e 48 138
e 48 139
e 48 140
e 48 142
e 48 143
e 48 146
e 48 150
e 48 151
e 48 154
e 48 155
e 48 159
e 48 162
e 48 166
e 48 171
e 48 173
e 48 180
e 48 188
e 48 197
e 49 57
e 49 59
e 49 79
e 49 85
e 49 90
e 49 96
e 49 99
e 49 100
e 49 117
e 49 121
e 49 122
e 49 123
e 49 125
e 49 129
e 49 136
e 49 144
e 49 148
e 49 149
e 49 150
e 49 152
e 49 156
e 49 159
e 49 163
e 49 179
e 49 184
e 49 185
e 49 191
e 49 193
e 49 196
e 50 53
e 50 54
e 50 57
e 50 64
e 50 73
e 50 77
e 50 78
e 50 79
e 50 82
e 50 90
e 50 97
e 50 114
e 50 120
e 50 125
e 50 127
e 50 128
e 50 130
e 50 139
e 50 146
e 50 156
e 50 158
e 50 164
e 50 177
e 50 183
e 50 188
e 50 197
e 50 200
e 51 52
e 51 56
e 51 58
e 51 62
e 51 63
e 51 64
e 51 74
e 51 76
e 51 77
e 51 81
e 51 83
e 51 89
e 51 117
e 51 122
e 51 124
e 51 125
e 51 126
e 51 128
e 51 130
e 51 132
e 51 136
e 51 141
e 51 142
e 51 143
e 51 144
e 51 150
e 51 151
e 51 153
e 51 157
e 51 161
e 51 171
e 51 176
e 51 187
e 51 194
e 51 198
e 51 199
e 52 59
e 52 60
e 52 73
e 52 79
e 52 80
e 52 81
e 52 85
e 52 91
e 52 104
e 52 113
e 52 114
e 52 116
e 52 118
e 52 130
e 52 136
e 52 145
e 52 147
e 52 159
e 52 165
e 52 168
e 52 169
e 52 175
e 52 176
e 52 180
e 52 182
e 52 185
e 52 188
e 52 189
e 52 192
e 52 193
e 52 194
e 52 195
e 52 196
e 53 55
e 53 61
e 53 72
e 53 74
e 53 83
e 53 85
e 53 86
e 53 90
e 53 101
e 53 102
e 53 104
e 53 108
e 53 117
e 53 124
e 53 126
e 53 129
e 53 132
e 53 135
e 53 137
e 53 148
e 53 150
e 53 171
e 53 173
e 53 176
e 53 183
e 53 185
e 53 190
e 54 64
e 54 74
e 54 77
e 54 88
e 54 92
e 54 94
e 54 108
e 54 109
e 54 111
e 54 127
e 54 128
e 54 131
e 54 138
e 54 143
e 54 155
e 54 167
e 54 169
e 54 171
e 54 177
e 54 182
e 54 189
e 54 192
e 54 193
e 54 197
e 55 64
e 55 70
e 55 75
e 55 77
e 55 84
e 55 86
e 55 89
e 55 91
e 55 94
e 55 96
e 55 97
e 55 98
e 55 99
e 55 108
e 55 111
e 55 127
e 55 132
e 55 140
e 55 141
e 55 142
e 55 145
e 55 146
e 55 147
e 55 151
e 55 157
e 55 158
e 55 159
e 55 161
e 55 164
e 55 166
e 55 172
e 55 175
e 55 195
e 55 196
e 55 199
e 56 61
e 56 62
e 56 65
e 56 76
e 56 78
e 56 83
e 56 85
e 56 86
e 56 94
e 56 104
e 56 105
e 56 111
e 56 114
e 56 115
e 56 119
e 56 122
e 56 124
e 56 135
e 56 136
e 56 149
e 56 156
e 56 169
e 56 171
e 56 194
e 56 199
e 57 59
e 57 65
e 57 67
e 57 71
e 57 73
e 57 74
e 57 79
e 57 86
e 57 92
e 57 93
e 57 94
e 57 97
e 57 109
e 57 110
e 57 118
e 57 133
e 57 143
e 57 144
e 57 146
e 57 148
e 57 155
e 57 161
e 57 164
e 57 165
e 57 167
e 57 175
e 57 178
e 57 179
e 57 190
e 57 199
e 58 69
e 58 73
e 58 82
e 58 84
e 58 88
e 58 98
e 58 111
e 58 114
e 58 120
e 58 121
e 58 123
e 58 127
e 58 128
e 58 130
e 58 136
e 58 143
e 58 146
e 58 150
e 58 158
e 58 161
e 58 162
e 58 166
e 58 167
e 58 174
e 58 187
e 58 195
e 58 198
e 59 60
e 59 62
e 59 70
e 59 83
e 59 84
e 59 90
e 59 103
e 59 107
e 59 116
e 59 119
e 59 122
e 59 130
e 59 135
e 59 136
e 59 138
e 59 141
e 59 151
e 59 152
e 59 153
e 59 154
e 59 155
e 59 158
e 59 159
e 59 173
e 59 193
e 60 62
e 60 64
e 60 65
e 60 66
e 60 71
e 60 77
e 60 78
e 60 80
e 60 83
e 60 87
e 60 89
e 60 91
e 60 101
e 60 106
e 60 108
e 60 118
e 60 125
e 60 138
e 60 143
e 60 145
e 60 147
e 60 149
e 60 153
e 60 163
e 60 174
e 60 181
e 60 192
e 60 195
e 60 197
e 61 68
e 61 69
e 61 74
e 61 84
e 61 85
e 61 87
e 61 90
e 61 91
e 61 96
e 61 111
e 61 119
e 61 122
e 61 124
e 61 125
e 61 126
e 61 130
e 61 137
e 61 144
e 61 146
e 61 147
e 61 150
e 61 162
e 61 164
e 61 169
e 61 177
e 61 178
e 61 185
e 61 187
e 61 194
e 61 197
e 61 198
e 62 65
e 62 68
e 62 70
e 62 71
e 62 74
e 62 77
e 62 88
e 62 89
e 62 90
e 62 93
e 62 96
e 62 97
e 62 98
e 62 103
e 62 110
e 62 118
e 62 120
e 62 130
e 62 135
e 62 140
e 62 144
e 62 152
e 62 155
e 62 156
e 62 165
e 62 167
e 62 171
e 62 172
e 62 177
e 62 178
e 62 179
e 62 182
e 62 186
e 62 196
e 62 198
e 62 199
e 63 68
e 63 69
e 63 71
e 63 72
e 63 84
e 63 85
e 63 91
e 63 92
e 63 94
e 63 96
e 63 99
e 63 100
e 63 102
e 63 105
e 63 106
e 63 112
e 63 118
e 63 121
e 63 123
e 63 124
e 63 125
e 63 145
e 63 147
e 63 154
e 63 156
e 63 164
e 63 169
e 63 170
e 63 172
e 63 175
e 63 190
e 63 197
e 64 70
e 64 80
e 64 82
e 64 87
e 64 88
e 64 89
e 64 93
e 64 105
e 64 108
e 64 117
e 64 118
e 64 126
e 64 127
e 64 130
e 64 139
e 64 146
e 64 150
e 64 151
e 64 152
e 64 154
e 64 156
e 64 159
e 64 161
e 64 162
e 64 166
e 64 167
e 64 178
e 64 191
e 65 69
e 65 81
e 65 96
e 65 107
e 65 109
e 65 110
e 65 114
e 65 118
e 65 131
e 65 136
e 65 137
e 65 138
e 65 143
e 65 149
e 65 157
e 65 158
e 65 162
e 65 164
e 65 167
e 65 174
e 65 180
e 65 182
e 65 183
e 65 190
e 65 193
e 65 195
e 66 70
e 66 80
e 66 81
e 66 95
e 66 103
e 66 106
e 66 108
e 66 112
e 66 114
e 66 115
e 66 116
e 66 123
e 66 135
e 66 136
e 66 139
e 66 142
e 66 143
e 66 145
e 66 149
e 66 150
e 66 158
e 66 159
e 66 160
e 66 164
e 66 168
e 66 173
e 66 178
e 66 186
e 66 197
e 67 76
e 67 78
e 67 80
e 67 81
e 67 86
e 67 88
e 67 104
e 67 108
e 67 113
e 67 116
e 67 119
e 67 121
e 67 124
e 67 125
e 67 130
e 67 134
e 67 139
e 67 148
e 67 150
e 67 159
e 67 160
e 67 172
e 67 173
e 67 184
e 67 185
e 67 188
e 67 192
e 67 198
e 67 199
e 67 200
e 68 69
e 68 70
e 68 77
e 68 80
e 68 85
e 68 88
e 68 92
e 68 94
e 68 95
e 68 103
e 68 104
e 68 107
e 68 121
e 68 126
e 68 138
e 68 141
e 68 145
e 68 146
e 68 151
e 68 153
e 68 160
e 68 161
e 68 168
e 68 169
e 68 175
e 68 183
e 68 188
e 68 192
e 68 196
e 68 198
e 68 199
e 68 200
e 69 72
e 69 74
e 69 80
e 69 83
e 69 92
e 69 102
e 69 103
e 69 106
e 69 110
e 69 111
e 69 112
e 69 122
e 69 123
e 69 127
e 69 147
e 69 149
e 69 150
e 69 153
e 69 154
e 69 162
e 69 164
e 69 166
e 69 170
e 69 173
e 69 174
e 69 178
e 69 183
e 69 196
e 70 71
e 70 73
e 70 74
e 70 83
e 70 89
e 70 101
e 70 107
e 70 114
e 70 119
e 70 131
e 70 134
e 70 139
e 70 146
e 70 147
e 70 150
e 70 151
e 70 175
e 70 180
e 70 187
e 71 72
e 71 75
e 71 77
e 71 79
e 71 84
e 71 87
e 71 88
e 71 100
e 71 104
e 71 113
e 71 126
e 71 131
e 71 143
e 71 153
e 71 157
e 71 163
e 71 164
e 71 168
e 71 173
e 71 174
e 71 186
e 71 190
e 71 196
e 71 200
e 72 92
e 72 94
e 72 95
e 72 96
e 72 98
e 72 102
e 72 106
e 72 108
e 72 123
e 72 129
e 72 131
e 72 133
e 72 134
e 72 135
e 72 139
e 72 150
e 72 151
e 72 152
e 72 163
e 72 169
e 72 173
e 72 176
e 72 177
e 72 181
e 72 186
e 72 192
e 72 198
e 72 199
e 72 200
e 73 77
e 73 92
e 73 97
e 73 106
e 73 107
e 73 111
e 73 121
e 73 131
e 73 135
e 73 137
e 73 139
e 73 142
e 73 147
e 73 150
e 73 159
e 73 167
e 73 174
e 73 177
e 73 187
e 73 191
e 73 192
e 73 193
e 73 194
e 73 196
e 73 197
e 74 79
e 74 80
e 74 81
e 74 92
e 74 93
e 74 98
e 74 102
e 74 103
e 74 112
e 74 135
e 74 141
e 74 142
e 74 154
e 74 160
e 74 165
e 74 170
e 74 172
e 74 174
e 74 176
e 74 180
e 74 182
e 74 189
e 74 192
e 74 198
e 74 199
e 74 200
e 75 79
e 75 80
e 75 86
e 75 89
e 75 100
e 75 105
e 75 107
e 75 110
e 75 123
e 75 132
e 75 134
e 75 137
e 75 146
e 75 149
e 75 151
e 75 152
e 75 154
e 75 156
e 75 157
e 75 158
e 75 160
e 75 163
e 75 168
e 75 170
e 75 171
e 75 179
e 75 182
e 75 184
e 75 188
e 75 196
e 76 85
e 76 90
e 76 97
e 76 104
e 76 110
e 76 114
e 76 115
e 76 118
e 76 119
e 76 120
e 76 123
e 76 125
e 76 126
e 76 129
e 76 134
e 76 136
e 76 142
e 76 157
e 76 163
e 76 168
e 76 184
e 76 186
e 76 187
e 76 190
e 76 191
e 77 78
e 77 82
e 77 86
e 77 95
e 77 96
e 77 100
e 77 103
e 77 109
e 77 115
e 77 118
e 77 124
e 77 125
e 77 130
e 77 137
e 77 145
e 77 150
e 77 154
e 77 157
e 77 160
e 77 164
e 77 166
e 77 178
e 77 185
e 77 187
e 77 192
e 77 197
e 78 81
e 78 83
e 78 84
e 78 89
e 78 97
e 78 104
e 78 107
e 78 110
e 78 111
e 78 117
e 78 121
e 78 126
e 78 132
e 78 139
e 78 143
e 78 146
e 78 154
e 78 171
e 78 174
e 78 178
e 78 182
e 78 193
e 78 196
e 78 199
e 79 81
e 79 83
e 79 89
e 79 93
e 79 96
e 79 100
e 79 104
e 79 108
e 79 113
e 79 117
e 79 125
e 79 128
e 79 129
e 79 137
e 79 139
e 79 145
e 79 151
e 79 154
e 79 155
e 79 161
e 79 164
e 79 171
e 79 180
e 79 190
e 80 84
e 80 88
e 80 92
e 80 93
e 80 96
e 80 100
e 80 108
e 80 109
e 80 112
e 80 115
e 80 116
e 80 142
e 80 146
e 80 156
e 80 157
e 80 158
e 80 159
e 80 167
e 80 168
e 80 185
e 80 186
e 80 187
e 80 192
e 80 194
e 80 196
e 80 197
e 81 85
e 81 87
e 81 98
e 81 104
e 81 106
e 81 118
e 81 119
e 81 128
e 81 129
e 81 134
e 81 137
e 81 141
e 81 144
e 81 148
e 81 160
e 81 177
e 81 178
e 81 186
e 81 192
e 81 198
e 81 199
e 82 84
e 82 86
e 82 96
e 82 97
e 82 101
e 82 102
e 82 105
e 82 124
e 82 128
e 82 131
e 82 132
e 82 136
e 82 137
e 82 141
e 82 142
e 82 155
e 82 157
e 82 168
e 82 175
e 82 178
e 82 182
e 82 187
e 82 197
e 83 94
e 83 95
e 83 102
e 83 108
e 83 110
e 83 113
e 83 119
e 83 122
e 83 124
e 83 130
e 83 138
e 83 143
e 83 146
e 83 154
e 83 155
e 83 157
e 83 172
e 83 173
e 83 174
e 83 178
e 83 179
e 83 186
e 83 188
e 84 88
e 84 89
e 84 93
e 84 103
e 84 107
e 84 111
e 84 113
e 84 118
e 84 123
e 84 134
e 84 144
e 84 158
e 84 179
e 84 183
e 84 186
e 84 187
e 84 191
e 84 197
e 85 86
e 85 88
e 85 92
e 85 95
e 85 114
e 85 120
e 85 121
e 85 132
e 85 143
e 85 145
e 85 149
e 85 156
e 85 160
e 85 161
e 85 165
e 85 190
e 85 191
e 85 193
e 85 197
e 86 87
e 86 90
e 86 92
e 86 114
e 86 118
e 86 126
e 86 127
e 86 128
e 86 130
e 86 131
e 86 137
e 86 145
e 86 147
e 86 152
e 86 155
e 86 163
e 86 167
e 86 173
e 86 185
e 86 186
e 86 187
e 86 191
e 86 197
e 86 199
e 86 200
e 87 90
e 87 91
e 87 93
e 87 95
e 87 99
e 87 112
e 87 114
e 87 118
e 87 126
e 87 132
e 87 143
e 87 145
e 87 148
e 87 155
e 87 156
e 87 157
e 87 164
e 87 165
e 87 167
e 87 170
e 87 172
e 87 177
e 87 178
e 87 186
e 87 187
e 87 188
e 87 199
e 88 90
e 88 93
e 88 96
e 88 97
e 88 102
e 88 122
e 88 130
e 88 138
e 88 144
e 88 147
e 88 148
e 88 153
e 88 166
e 88 167
e 88 171
e 88 176
e 88 181
e 88 184
e 88 187
e 88 190
e 88 193
e 88 194
e 88 196
e 88 198
e 88 199
e 89 90
e 89 95
e 89 100
e 89 104
e 89 106
e 89 111
e 89 114
e 89 128
e 89 134
e 89 136
e 89 144
e 89 145
e 89 149
e 89 158
e 89 161
e 89 166
e 89 172
e 89 176
e 89 180
e 89 181
e 89 183
e 89 185
e 89 192
e 89 194
e 89 198
e 90 91
e 90 92
e 90 97
e 90 100
e 90 104
e 90 107
e 90 111
e 90 112
e 90 124
e 90 126
e 90 130
e 90 131
e 90 135
e 90 136
e 90 139
e 90 142
e 90 146
e 90 151
e 90 163
e 90 164
e 90 169
e 90 170
e 90 179
e 90 183
e 90 185
e 90 193
e 90 194
e 91 99
e 91 102
e 91 108
e 91 125
e 91 137
e 91 140
e 91 143
e 91 156
e 91 166
e 91 180
e 91 181
e 91 182
e 91 185
e 91 191
e 91 195
e 92 93
e 92 94
e 92 101
e 92 104
e 92 126
e 92 129
e 92 130
e 92 131
e 92 133
e 92 135
e 92 142
e 92 150
e 92 163
e 92 171
e 92 172
e 92 173
e 92 175
e 92 179
e 92 180
e 92 183
e 92 187
e 92 199
e 93 94
e 93 96
e 93 104
e 93 111
e 93 113
e 93 117
e 93 119
e 93 135
e 93 139
e 93 142
e 93 144
e 93 148
e 93 149
e 93 150
e 93 156
e 93 159
e 93 160
e 93 165
e 93 168
e 93 177
e 93 179
e 93 182
e 93 187
e 93 195
e 93 196
e 93 197
e 94 95
e 94 96
e 94 101
e 94 103
e 94 114
e 94 115
e 94 119
e 94 122
e 94 124
e 94 127
e 94 131
e 94 132
e 94 135
e 94 138
e 94 140
e 94 142
e 94 144
e 94 149
e 94 159
e 94 165
e 94 169
e 94 170
e 94 176
e 94 177
e 94 178
e 94 185
e 94 189
e 94 196
e 95 101
e 95 105
e 95 107
e 95 112
e 95 122
e 95 127
e 95 131
e 95 138
e 95 146
e 95 153
e 95 162
e 95 163
e 95 186
e 95 189
e 95 193
e 96 101
e 96 107
e 96 111
e 96 113
e 96 118
e 96 119
e 96 123
e 96 125
e 96 132
e 96 135
e 96 146
e 96 149
e 96 152
e 96 153
e 96 155
e 96 165
e 96 170
e 96 171
e 96 175
e 96 180
e 96 182
e 96 185
e 96 188
e 96 200
e 97 104
e 97 108
e 97 110
e 97 118
e 97 125
e 97 133
e 97 138
e 97 139
e 97 146
e 97 151
e 97 153
e 97 154
e 97 166
e 97 172
e 97 173
e 97 174
e 97 182
e 97 184
e 97 185
e 97 193
e 97 198
e 98 100
e 98 101
e 98 104
e 98 109
e 98 112
e 98 129
e 98 133
e 98 135
e 98 137
e 98 142
e 98 146
e 98 150
e 98 155
e 98 156
e 98 157
e 98 164
e 98 165
e 98 172
e 98 173
e 98 176
e 98 177
e 98 178
e 98 183
e 98 187
e 99 101
e 99 102
e 99 104
e 99 108
e 99 112
e 99 115
e 99 127
e 99 128
e 99 130
e 99 132
e 99 134
e 99 150
e 99 151
e 99 154
e 99 159
e 99 163
e 99 164
e 99 165
e 99 169
e 99 172
e 99 175
e 99 180
e 99 184
e 99 199
e 100 103
e 100 116
e 100 118
e 100 121
e 100 129
e 100 130
e 100 131
e 100 143
e 100 147
e 100 151
e 100 156
e 100 157
e 100 160
e 100 166
e 100 179
e 100 181
e 100 182
e 100 183
e 100 185
e 100 189
e 101 117
e 101 128
e 101 135
e 101 152
e 101 156
e 101 157
e 101 158
e 101 161
e 101 164
e 101 168
e 101 179
e 101 181
e 101 185
e 101 189
e 101 194
e 101 196
e 101 198
e 101 200
e 102 103
e 102 104
e 102 112
e 102 116
e 102 118
e 102 124
e 102 127
e 102 129
e 102 131
e 102 134
e 102 139
e 102 141
e 102 146
e 102 148
e 102 150
e 102 151
e 102 160
e 102 161
e 102 177
e 102 186
e 102 188
e 102 193
e 102 195
e 102 197
e 102 200
e 103 115
e 103 116
e 103 124
e 103 127
e 103 128
e 103 132
e 103 136
e 103 138
e 103 145
e 103 150
e 103 161
e 103 163
e 103 166
e 103 173
e 103 179
e 103 186
e 103 187
e 103 189
e 104 110
e 104 112
e 104 114
e 104 126
e 104 133
e 104 137
e 104 140
e 104 141
e 104 146
e 104 152
e 104 159
e 104 160
e 104 165
e 104 169
e 104 170
e 104 171
e 104 172
e 104 177
e 104 178
e 104 179
e 104 182
e 104 189
e 104 191
e 104 197
e 105 110
e 105 119
e 105 120
e 105 123
e 105 129
e 105 139
e 105 142
e 105 146
e 105 167
e 105 172
e 105 173
e 105 183
e 105 184
e 105 187
e 105 188
e 105 192
e 105 200
e 106 112
e 106 120
e 106 124
e 106 125
e 106 127
e 106 131
e 106 134
e 106 136
e 106 137
e 106 140
e 106 142
e 106 143
e 106 147
e 106 148
e 106 155
e 106 156
e 106 159
e 106 168
e 106 171
e 106 173
e 106 176
e 106 177
e 106 179
e 106 192
e 107 110
e 107 130
e 107 137
e 107 153
e 107 154
e 107 155
e 107 156
e 107 161
e 107 169
e 107 170
e 107 177
e 107 178
e 107 182
e 107 185
e 107 188
e 107 189
e 107 192
e 107 197
e 108 110
e 108 113
e 108 116
e 108 128
e 108 134
e 108 136
e 108 140
e 108 142
e 108 143
e 108 144
e 108 145
e 108 147
e 108 149
e 108 152
e 108 157
e 108 159
e 108 161
e 108 166
e 108 168
e 108 170
e 108 171
e 108 172
e 108 175
e 108 181
e 108 182
e 108 188
e 108 192
e 108 198
e 109 115
e 109 116
e 109 118
e 109 122
e 109 133
e 109 137
e 109 150
e 109 152
e 109 155
e 109 156
e 109 158
e 109 161
e 109 164
e 109 168
e 109 171
e 109 173
e 109 177
e 109 179
e 109 187
e 109 197
e 109 198
e 109 200
e 110 113
e 110 131
e 110 133
e 110 135
e 110 138
e 110 140
e 110 141
e 110 148
e 110 153
e 110 161
e 110 167
e 110 169
e 110 179
e 110 180
e 110 191
e 111 114
e 111 115
e 111 117
e 111 128
e 111 129
e 111 130
e 111 139
e 111 141
e 111 145
e 111 148
e 111 152
e 111 153
e 111 154
e 111 162
e 111 171
e 111 174
e 111 177
e 111 178
e 111 184
e 111 193
e 111 195
e 111 199
e 112 114
e 112 116
e 112 122
e 112 137
e 112 141
e 112 142
e 112 151
e 112 155
e 112 162
e 112 165
e 112 166
e 112 172
e 112 175
e 112 177
e 112 179
e 112 183
e 112 184
e 112 190
e 112 197
e 113 121
e 113 131
e 113 134
e 113 136
e 113 144
e 113 156
e 113 174
e 113 181
e 113 184
e 113 191
e 113 194
e 113 196
e 113 198
e 113 200
e 114 118
e 114 126
e 114 127
e 114 128
e 114 129
e 114 135
e 114 138
e 114 146
e 114 156
e 114 160
e 114 163
e 114 168
e 114 175
e 114 179
e 114 182
e 114 193
e 114 199
e 115 117
e 115 118
e 115 123
e 115 124
e 115 126
e 115 128
e 115 129
e 115 131
e 115 134
e 115 148
e 115 151
e 115 152
e 115 155
e 115 157
e 115 161
e 115 163
e 115 166
e 115 168
e 115 169
e 115 172
e 115 181
e 115 182
e 115 183
e 115 188
e 115 191
e 115 192
e 115 194
e 115 197
e 115 198
e 115 199
e 116 123
e 116 124
e 116 141
e 116 143
e 116 144
e 116 147
e 116 148
e 116 149
e 116 151
e 116 161
e 116 171
e 116 174
e 116 177
e 116 181
e 116 187
e 116 193
e 116 194
e 116 195
e 116 196
e 116 199
e 117 120
e 117 122
e 117 124
e 117 125
e 117 134
e 117 153
e 117 158
e 117 159
e 117 164
e 117 167
e 117 173
e 117 176
e 117 177
e 117 178
e 117 184
e 117 192
e 117 193
e 117 194
e 117 200
e 118 135
e 118 144
e 118 146
e 118 147
e 118 148
e 118 159
e 118 168
e 118 171
e 118 178
e 118 179
e 118 187
e 118 188
e 118 189
e 118 199
e 119 120
e 119 121
e 119 123
e 119 132
e 119 133
e 119 134
e 119 137
e 119 144
e 119 149
e 119 156
e 119 157
e 119 159
e 119 161
e 119 166
e 119 168
e 119 172
e 119 175
e 119 176
e 119 191
e 120 121
e 120 125
e 120 127
e 120 135
e 120 138
e 120 140
e 120 141
e 120 143
e 120 144
e 120 151
e 120 163
e 120 166
e 120 167
e 120 177
e 120 178
e 120 180
e 120 186
e 121 125
e 121 127
e 121 131
e 121 133
e 121 136
e 121 137
e 121 139
e 121 146
e 121 155
e 121 164
e 121 167
e 121 178
e 121 190
e 122 123
e 122 129
e 122 133
e 122 136
e 122 138
e 122 139
e 122 140
e 122 142
e 122 146
e 122 149
e 122 155
e 122 162
e 122 163
e 122 166
e 122 176
e 122 178
e 122 183
e 122 191
e 122 198
e 123 126
e 123 132
e 123 133
e 123 136
e 123 141
e 123 147
e 123 151
e 123 152
e 123 156
e 123 160
e 123 164
e 123 166
e 123 171
e 123 179
e 123 180
e 123 181
e 123 185
e 123 187
e 123 188
e 123 190
e 123 197
e 123 198
e 124 131
e 124 136
e 124 139
e 124 144
e 124 157
e 124 158
e 124 159
e 124 174
e 124 184
e 124 188
e 124 193
e 124 196
e 125 129
e 125 137
e 125 140
e 125 143
e 125 144
e 125 149
e 125 153
e 125 155
e 125 156
e 125 158
e 125 161
e 125 168
e 125 170
e 125 178
e 125 184
e 125 187
e 125 200
e 126 130
e 126 131
e 126 142
e 126 146
e 126 159
e 126 165
e 126 176
e 126 178
e 126 180
e 126 188
e 126 191
e 126 195
e 127 128
e 127 141
e 127 142
e 127 144
e 127 146
e 127 147
e 127 152
e 127 153
e 127 156
e 127 158
e 127 159
e 127 161
e 127 164
e 127 168
e 127 171
e 127 176
e 127 179
e 127 187
e 127 198
e 128 136
e 128 138
e 128 140
e 128 145
e 128 150
e 128 160
e 128 169
e 128 172
e 128 173
e 128 174
e 128 189
e 128 193
e 128 194
e 128 198
e 128 199
e 129 131
e 129 132
e 129 144
e 129 150
e 129 156
e 129 157
e 129 160
e 129 161
e 129 164
e 129 167
e 129 170
e 129 176
e 129 178
e 129 181
e 129 185
e 129 190
e 129 192
e 130 132
e 130 134
e 130 139
e 130 141
e 130 144
e 130 151
e 130 156
e 130 168
e 130 176
e 130 181
e 131 134
e 131 137
e 131 148
e 131 157
e 131 167
e 131 175
e 131 176
e 131 177
e 131 179
e 131 191
e 131 192
e 131 194
e 132 133
e 132 135
e 132 139
e 132 140
e 132 145
e 132 146
e 132 153
e 132 159
e 132 166
e 132 167
e 132 168
e 132 169
e 132 172
e 132 177
e 132 179
e 132 186
e 132 191
e 132 192
e 132 195
e 133 138
e 133 154
e 133 168
e 133 170
e 133 180
e 133 188
e 133 197
e 133 198
e 133 199
e 134 146
e 134 148
e 134 153
e 134 154
e 134 155
e 134 174
e 134 182
e 134 189
e 134 191
e 134 192
e 134 196
e 134 200
e 135 138
e 135 143
e 135 150
e 135 153
e 135 157
e 135 158
e 135 160
e 135 161
e 135 171
e 135 174
e 135 176
e 135 181
e 136 144
e 136 147
e 136 150
e 136 153
e 136 155
e 136 163
e 136 173
e 136 174
e 136 189
e 136 192
e 137 144
e 137 148
e 137 150
e 137 153
e 137 157
e 137 166
e 137 169
e 137 180
e 137 185
e 137 191
e 137 198
e 137 199
e 138 139
e 138 144
e 138 145
e 138 162
e 138 164
e 138 176
e 138 179
e 138 184
e 138 190
e 139 146
e 139 153
e 139 155
e 139 162
e 139 166
e 139 167
e 139 173
e 139 175
e 139 179
e 139 180
e 139 182
e 139 183
e 139 185
e 139 188
e 139 194
e 140 144
e 140 149
e 140 150
e 140 152
e 140 157
e 140 158
e 140 159
e 140 164
e 140 167
e 140 169
e 140 170
e 140 175
e 140 176
e 140 199
e 141 142
e 141 153
e 141 157
e 141 158
e 141 160
e 141 163
e 141 166
e 141 173
e 141 175
e 141 186
e 141 187
e 141 192
e 142 146
e 142 153
e 142 154
e 142 161
e 142 175
e 142 177
e 142 187
e 142 196
e 142 198
e 143 146
e 143 150
e 143 156
e 143 175
e 143 191
e 143 198
e 144 146
e 144 159
e 144 169
e 144 171
e 144 172
e 144 183
e 144 185
e 144 190
e 145 147
e 145 149
e 145 159
e 145 161
e 145 171
e 145 174
e 145 177
e 145 179
e 145 182
e 145 186
e 145 191
e 145 197
e 146 151
e 146 166
e 146 167
e 146 171
e 146 172
e 146 173
e 146 179
e 146 188
e 146 192
e 146 199
e 147 152
e 147 157
e 147 166
e 147 168
e 147 197
e 148 151
e 148 158
e 148 162
e 148 164
e 148 177
e 148 180
e 148 181
e 148 194
e 148 197
e 148 199
e 149 153
e 149 160
e 149 163
e 149 165
e 149 167
e 149 171
e 149 191
e 149 195
e 149 199
e 149 200
e 150 153
e 150 162
e 150 163
e 150 167
e 150 168
e 150 171
e 150 173
e 150 174
e 150 177
e 150 178
e 150 190
e 150 193
e 150 194
e 150 197
e 150 198
e 151 156
e 151 171
e 151 172
e 151 174
e 151 177
e 151 182
e 151 185
e 151 190
e 151 195
e 151 199
e 152 154
e 152 156
e 152 161
e 152 164
e 152 167
e 152 168
e 152 169
e 152 180
e 152 181
e 152 187
e 152 189
e 152 191
e 152 198
e 152 199
e 153 177
e 153 188
e 153 190
e 153 194
e 153 199
e 154 158
e 154 162
e 154 172
e 154 177
e 154 181
e 154 188
e 154 191
e 154 199
e 155 161
e 155 169
e 155 170
e 155 182
e 155 184
e 155 189
e 155 196
e 155 197
e 156 169
e 156 170
e 156 172
e 156 177
e 156 194
e 156 196
e 156 197
e 156 198
e 156 200
e 157 158
e 157 165
e 157 167
e 157 176
e 157 194
e 157 195
e 157 200
e 158 161
e 158 162
e 158 164
e 158 170
e 158 175
e 158 180
e 158 186
e 158 189
e 158 194
e 158 200
e 159 164
e 159 168
e 159 173
e 159 175
e 159 184
e 159 188
e 159 189
e 159 193
e 159 197
e 160 163
e 160 167
e 160 168
e 160 169
e 160 172
e 160 177
e 160 179
e 160 181
e 160 190
e 160 195
e 160 197
e 161 162
e 161 163
e 161 167
e 161 173
e 161 175
e 161 182
e 161 189
e 161 194
e 161 197
e 161 199
e 162 164
e 162 165
e 162 173
e 162 177
e 162 187
e 162 193
e 162 196
e 162 198
e 162 199
e 163 170
e 163 171
e 163 178
e 163 191
e 163 198
e 163 199
e 164 173
e 164 179
e 164 193
e 165 176
e 165 180
e 165 191
e 165 195
e 165 197
e 166 172
e 166 176
e 166 180
e 166 186
e 166 189
e 166 198
e 166 199
e 166 200
e 167 168
e 167 174
e 167 175
e 167 177
e 167 178
e 167 181
e 167 186
e 168 171
e 168 173
e 168 175
e 168 190
e 168 196
e 169 175
e 169 177
e 169 179
e 169 185
e 169 189
e 169 194
e 169 197
e 170 171
e 170 181
e 170 185
e 170 189
e 170 191
e 170 192
e 170 193
e 170 198
e 170 199
e 171 172
e 171 181
e 171 184
e 171 195
e 171 197
e 172 175
e 172 177
e 172 178
e 172 183
e 172 193
e 172 194
e 172 199
e 173 176
e 173 177
e 173 183
e 173 189
e 173 196
e 173 197
e 173 198
e 174 176
e 174 180
e 174 183
e 174 187
e 174 190
e 174 191
e 174 192
e 175 180
e 175 181
e 175 184
e 175 186
e 175 187
e 175 190
e 175 196
e 176 178
e 176 187
e 176 190
e 176 192
e 176 200
e 177 179
e 177 188
e 177 190
e 177 192
e 177 193
e 177 196
e 178 180
e 178 183
e 178 191
e 178 197
e 178 198
e 179 185
e 179 191
e 179 192
e 179 193
e 180 184
e 180 186
e 180 188
e 181 183
e 181 186
e 181 188
e 181 197
e 181 198
e 181 200
e 182 185
e 182 187
e 182 188
e 182 197
e 182 200
e 183 190
e 183 192
e 183 195
e 184 185
e 184 191
e 184 192
e 184 198
e 185 190
e 185 195
e 185 196
e 186 191
e 186 192
e 187 191
e 187 192
e 187 194
e 187 195
e 188 192
e 188 197
e 189 200
e 190 195
e 190 197
e 190 200
e 191 196
e 192 194
e 193 196
e 194 197
e 194 199
e 195 197
e 195 200
e 197 199
e 199 200
